benchmarks/crosswords/mzn/crossword3_44.ozn
output ([(((("\n"++problem_name)++"\n")++"L:")++show(L))++"\n"]++[if problem[i,j]==0 then "*" else show(letters[fix(L[problem[i,j]])]) endif++if j==cols then "\n" else "" endif | i in 1..rows, j in 1..cols, ])++["\n"];
int: rows = 23;
int: cols = 23;
array [1..rows,1..cols] of int: problem = [|1,2,3,4,5,0,6,7,8,9,10,0,11,12,13,14,15,0,16,17,18,19,20|21,22,23,24,25,0,26,27,28,29,30,0,31,32,33,34,35,0,36,37,38,39,40|41,42,43,44,45,46,47,48,49,50,51,0,52,53,54,55,56,0,57,58,59,60,61|62,63,64,0,65,66,67,68,0,69,70,71,72,73,0,74,75,76,77,0,78,79,80|81,82,83,84,85,86,87,0,88,89,90,91,92,93,94,0,95,96,97,98,99,100,101|0,0,0,102,103,104,0,105,106,107,108,109,0,110,111,112,0,113,114,115,0,0,0|116,117,118,119,120,0,121,122,123,124,125,0,126,127,128,129,130,0,131,132,133,134,135|136,137,138,139,0,140,141,142,143,144,0,145,146,147,148,149,150,151,0,152,153,154,155|156,157,158,0,159,160,161,162,163,0,164,165,166,167,0,168,169,170,171,0,172,173,174|175,176,177,178,179,180,181,182,0,183,184,185,186,0,187,188,189,190,191,192,193,194,195|196,197,198,199,200,201,202,0,203,204,205,206,0,207,208,209,210,0,211,212,213,214,215|0,0,0,216,217,218,0,219,220,221,222,223,224,225,226,227,0,228,229,230,0,0,0|231,232,233,234,235,0,236,237,238,239,0,240,241,242,243,0,244,245,246,247,248,249,250|251,252,253,254,255,256,257,258,259,0,260,261,262,263,0,264,265,266,267,268,269,270,271|272,273,274,0,275,276,277,278,0,279,280,281,282,0,283,284,285,286,287,0,288,289,290|291,292,293,294,0,295,296,297,298,299,300,301,0,302,303,304,305,306,0,307,308,309,310|311,312,313,314,315,0,316,317,318,319,320,0,321,322,323,324,325,0,326,327,328,329,330|0,0,0,331,332,333,0,334,335,336,0,337,338,339,340,341,0,342,343,344,0,0,0|345,346,347,348,349,350,351,0,352,353,354,355,356,357,358,0,359,360,361,362,363,364,365|366,367,368,0,369,370,371,372,0,373,374,375,376,377,0,378,379,380,381,0,382,383,384|385,386,387,388,389,0,390,391,392,393,394,0,395,396,397,398,399,400,401,402,403,404,405|406,407,408,409,410,0,411,412,413,414,415,0,416,417,418,419,420,0,421,422,423,424,425|426,427,428,429,430,0,431,432,433,434,435,0,436,437,438,439,440,0,441,442,443,444,445|];
int: num_letters = 26;
array [1..num_letters] of string: letters = ["a","b","c","d","e","f","g","h","i","j","k","l","m","n","o","p","q","r","s","t","u","v","w","x","y","z"];
int: N = 445;
array [0..N] of int: L;
string: problem_name = "23.05, 23 x 23";
