benchmarks/crosswords/mzn/crossword3_44.res
REGULAR
REGULAR
REGULAR
REGULAR
REGULAR
REGULAR
REGULAR
REGULAR
REGULAR
REGULAR
REGULAR
REGULAR
REGULAR
REGULAR
REGULAR
REGULAR
REGULAR
REGULAR
REGULAR
REGULAR
REGULAR
REGULAR
REGULAR
REGULAR
REGULAR
REGULAR
REGULAR
REGULAR
REGULAR
REGULAR
REGULAR
REGULAR
REGULAR
REGULAR
REGULAR
REGULAR
REGULAR
REGULAR
REGULAR
REGULAR
REGULAR
REGULAR
REGULAR
REGULAR
REGULAR
REGULAR
REGULAR
REGULAR
REGULAR
REGULAR
REGULAR
REGULAR
REGULAR
REGULAR
REGULAR
REGULAR
REGULAR
REGULAR
REGULAR
REGULAR
REGULAR
REGULAR
REGULAR
REGULAR
REGULAR
REGULAR
REGULAR
REGULAR
REGULAR
REGULAR
REGULAR
REGULAR
REGULAR
REGULAR
REGULAR
REGULAR
REGULAR
REGULAR
REGULAR
REGULAR
REGULAR
REGULAR
REGULAR
REGULAR
REGULAR
REGULAR
REGULAR
REGULAR
REGULAR
REGULAR
REGULAR
REGULAR
REGULAR
REGULAR
REGULAR
REGULAR
REGULAR
REGULAR
REGULAR
REGULAR
REGULAR
REGULAR
REGULAR
REGULAR
REGULAR
REGULAR
REGULAR
REGULAR
REGULAR
REGULAR
REGULAR
REGULAR
REGULAR
REGULAR
REGULAR
REGULAR
REGULAR
REGULAR
REGULAR
REGULAR
REGULAR
REGULAR
REGULAR
REGULAR
REGULAR
REGULAR
REGULAR
REGULAR
REGULAR
REGULAR
REGULAR
REGULAR
REGULAR
REGULAR
REGULAR
REGULAR
REGULAR
REGULAR
REGULAR
REGULAR
REGULAR
REGULAR
REGULAR
REGULAR
REGULAR
REGULAR
REGULAR
REGULAR
REGULAR
REGULAR
REGULAR
REGULAR
REGULAR
REGULAR
REGULAR
REGULAR
REGULAR
REGULAR
REGULAR
REGULAR
REGULAR
REGULAR
REGULAR
REGULAR
REGULAR
REGULAR
REGULAR
REGULAR
REGULAR
REGULAR
REGULAR
REGULAR
REGULAR
REGULAR
REGULAR
REGULAR
REGULAR
REGULAR
REGULAR
REGULAR
L = array1d(0..445, [1, 19, 18, 1, 5, 19, 4, 5, 12, 1, 8, 5, 19, 14, 5, 19, 7, 14, 9, 25, 12, 18, 5, 4, 12, 1, 5, 20, 1, 2, 1, 19, 7, 9, 18, 16, 14, 15, 18, 18, 1, 1, 4, 14, 1, 14, 1, 11, 5, 22, 9, 22, 9, 1, 11, 1, 19, 9, 3, 1, 20, 19, 5, 18, 9, 1, 13, 1, 13, 20, 15, 4, 15, 7, 18, 1, 15, 2, 20, 14, 1, 14, 15, 12, 25, 2, 1, 2, 1, 9, 8, 20, 14, 25, 3, 7, 1, 2, 14, 1, 5, 2, 7, 1, 12, 25, 15, 18, 5, 12, 12, 5, 4, 20, 1, 15, 25, 5, 22, 15, 3, 15, 2, 13, 21, 10, 5, 12, 12, 5, 2, 14, 5, 12, 12, 5, 1, 14, 5, 4, 5, 12, 2, 1, 3, 5, 11, 15, 1, 18, 1, 11, 1, 26, 9, 12, 19, 15, 7, 5, 12, 2, 1, 19, 5, 14, 1, 12, 1, 2, 12, 1, 18, 1, 15, 19, 20, 5, 14, 9, 2, 1, 3, 1, 12, 9, 12, 19, 23, 5, 9, 22, 18, 5, 22, 15, 5, 1, 14, 9, 20, 1, 16, 5, 20, 1, 18, 9, 18, 5, 11, 1, 9, 8, 1, 2, 21, 14, 7, 19, 12, 1, 25, 1, 18, 20, 5, 2, 19, 19, 1, 19, 12, 1, 18, 21, 1, 14, 1, 4, 20, 1, 5, 8, 1, 9, 19, 8, 3, 21, 6, 14, 9, 12, 2, 15, 7, 2, 15, 8, 3, 3, 1, 25, 19, 5, 19, 1, 3, 1, 18, 6, 1, 18, 1, 13, 1, 5, 18, 20, 19, 5, 16, 5, 7, 4, 1, 3, 1, 8, 1, 5, 16, 15, 8, 18, 8, 21, 2, 5, 9, 14, 14, 1, 7, 5, 2, 19, 19, 5, 20, 4, 1, 11, 11, 1, 19, 5, 18, 5, 4, 4, 5, 13, 9, 13, 5, 4, 9, 14, 19, 14, 5, 2, 14, 5, 8, 14, 1, 13, 15, 18, 5, 7, 1, 1, 9, 12, 1, 20, 1, 14, 8, 19, 9, 18, 5, 8, 3, 15, 4, 1, 7, 12, 5, 4, 11, 18, 1, 1, 14, 9, 4, 11, 3, 21, 8, 3, 5, 14, 9, 16, 9, 12, 5, 18, 5, 22, 5, 12, 1, 14, 5, 18, 1, 20, 1, 9, 18, 1, 20, 5, 12, 15, 18, 16, 1, 20, 18, 15, 1, 18, 5, 18, 15, 2, 15, 15, 12, 7, 9, 5, 12, 18, 5, 13, 16, 21, 15, 18, 7, 4, 18, 1, 23, 1, 8, 3, 1, 15, 16, 19, 1, 2, 2, 1]);
----------

%%  runtime:       25.216 (25216.268 ms)
%%  solvetime:     0.617 (617.810 ms)
%%  solutions:     1
%%  variables:     54298
%%  propagators:   70142
%%  propagations:  1209085
%%  nodes:         332
%%  failures:      88
%%  restarts:      0
%%  peak depth:    178

GECODE_TUPLESET_MEM
GECODE_TUPLESET_MEM
GECODE_TUPLESET_MEM
GECODE_TUPLESET_MEM
GECODE_TUPLESET_MEM
GECODE_TUPLESET_MEM
GECODE_TUPLESET_MEM
GECODE_TUPLESET_MEM
GECODE_TUPLESET_MEM
GECODE_TUPLESET_MEM
GECODE_TUPLESET_MEM
GECODE_TUPLESET_MEM
GECODE_TUPLESET_MEM
GECODE_TUPLESET_MEM
GECODE_TUPLESET_MEM
GECODE_TUPLESET_MEM
GECODE_TUPLESET_MEM
GECODE_TUPLESET_MEM
GECODE_TUPLESET_MEM
GECODE_TUPLESET_MEM
GECODE_TUPLESET_MEM
GECODE_TUPLESET_MEM
GECODE_TUPLESET_MEM
GECODE_TUPLESET_MEM
GECODE_TUPLESET_MEM
GECODE_TUPLESET_MEM
GECODE_TUPLESET_MEM
GECODE_TUPLESET_MEM
GECODE_TUPLESET_MEM
GECODE_TUPLESET_MEM
GECODE_TUPLESET_MEM
GECODE_TUPLESET_MEM
GECODE_TUPLESET_MEM
GECODE_TUPLESET_MEM
GECODE_TUPLESET_MEM
GECODE_TUPLESET_MEM
GECODE_TUPLESET_MEM
GECODE_TUPLESET_MEM
GECODE_TUPLESET_MEM
GECODE_TUPLESET_MEM
GECODE_TUPLESET_MEM
GECODE_TUPLESET_MEM
GECODE_TUPLESET_MEM
GECODE_TUPLESET_MEM
GECODE_TUPLESET_MEM
GECODE_TUPLESET_MEM
GECODE_TUPLESET_MEM
GECODE_TUPLESET_MEM
GECODE_TUPLESET_MEM
GECODE_TUPLESET_MEM
GECODE_TUPLESET_MEM
GECODE_TUPLESET_MEM
GECODE_TUPLESET_MEM
GECODE_TUPLESET_MEM
GECODE_TUPLESET_MEM
GECODE_TUPLESET_MEM
GECODE_TUPLESET_MEM
GECODE_TUPLESET_MEM
GECODE_TUPLESET_MEM
GECODE_TUPLESET_MEM
GECODE_TUPLESET_MEM
GECODE_TUPLESET_MEM
GECODE_TUPLESET_MEM
GECODE_TUPLESET_MEM
GECODE_TUPLESET_MEM
GECODE_TUPLESET_MEM
GECODE_TUPLESET_MEM
GECODE_TUPLESET_MEM
GECODE_TUPLESET_MEM
GECODE_TUPLESET_MEM
GECODE_TUPLESET_MEM
GECODE_TUPLESET_MEM
GECODE_TUPLESET_MEM
GECODE_TUPLESET_MEM
GECODE_TUPLESET_MEM
GECODE_TUPLESET_MEM
GECODE_TUPLESET_MEM
GECODE_TUPLESET_MEM
GECODE_TUPLESET_MEM
GECODE_TUPLESET_MEM
GECODE_TUPLESET_MEM
GECODE_TUPLESET_MEM
GECODE_TUPLESET_MEM
GECODE_TUPLESET_MEM
GECODE_TUPLESET_MEM
GECODE_TUPLESET_MEM
GECODE_TUPLESET_MEM
GECODE_TUPLESET_MEM
GECODE_TUPLESET_MEM
GECODE_TUPLESET_MEM
GECODE_TUPLESET_MEM
GECODE_TUPLESET_MEM
GECODE_TUPLESET_MEM
GECODE_TUPLESET_MEM
GECODE_TUPLESET_MEM
GECODE_TUPLESET_MEM
GECODE_TUPLESET_MEM
GECODE_TUPLESET_MEM
GECODE_TUPLESET_MEM
GECODE_TUPLESET_MEM
GECODE_TUPLESET_MEM
GECODE_TUPLESET_MEM
GECODE_TUPLESET_MEM
GECODE_TUPLESET_MEM
GECODE_TUPLESET_MEM
GECODE_TUPLESET_MEM
GECODE_TUPLESET_MEM
GECODE_TUPLESET_MEM
GECODE_TUPLESET_MEM
GECODE_TUPLESET_MEM
GECODE_TUPLESET_MEM
GECODE_TUPLESET_MEM
GECODE_TUPLESET_MEM
GECODE_TUPLESET_MEM
GECODE_TUPLESET_MEM
GECODE_TUPLESET_MEM
GECODE_TUPLESET_MEM
GECODE_TUPLESET_MEM
GECODE_TUPLESET_MEM
GECODE_TUPLESET_MEM
GECODE_TUPLESET_MEM
GECODE_TUPLESET_MEM
GECODE_TUPLESET_MEM
GECODE_TUPLESET_MEM
GECODE_TUPLESET_MEM
GECODE_TUPLESET_MEM
GECODE_TUPLESET_MEM
GECODE_TUPLESET_MEM
GECODE_TUPLESET_MEM
GECODE_TUPLESET_MEM
GECODE_TUPLESET_MEM
GECODE_TUPLESET_MEM
GECODE_TUPLESET_MEM
GECODE_TUPLESET_MEM
GECODE_TUPLESET_MEM
GECODE_TUPLESET_MEM
GECODE_TUPLESET_MEM
GECODE_TUPLESET_MEM
GECODE_TUPLESET_MEM
GECODE_TUPLESET_MEM
GECODE_TUPLESET_MEM
GECODE_TUPLESET_MEM
GECODE_TUPLESET_MEM
GECODE_TUPLESET_MEM
GECODE_TUPLESET_MEM
GECODE_TUPLESET_MEM
GECODE_TUPLESET_MEM
GECODE_TUPLESET_MEM
GECODE_TUPLESET_MEM
GECODE_TUPLESET_MEM
GECODE_TUPLESET_MEM
GECODE_TUPLESET_MEM
GECODE_TUPLESET_MEM
GECODE_TUPLESET_MEM
GECODE_TUPLESET_MEM
GECODE_TUPLESET_MEM
GECODE_TUPLESET_MEM
GECODE_TUPLESET_MEM
GECODE_TUPLESET_MEM
GECODE_TUPLESET_MEM
GECODE_TUPLESET_MEM
GECODE_TUPLESET_MEM
GECODE_TUPLESET_MEM
GECODE_TUPLESET_MEM
GECODE_TUPLESET_MEM
GECODE_TUPLESET_MEM
GECODE_TUPLESET_MEM
GECODE_TUPLESET_MEM
GECODE_TUPLESET_MEM
GECODE_TUPLESET_MEM
GECODE_TUPLESET_MEM
GECODE_TUPLESET_MEM
GECODE_TUPLESET_MEM
GECODE_TUPLESET_MEM
GECODE_TUPLESET_MEM
GECODE_TUPLESET_MEM
GECODE_TUPLESET_MEM
GECODE_TUPLESET_MEM
GECODE_TUPLESET_MEM
GECODE_TUPLESET_MEM
L = array1d(0..445, [1, 12, 1, 19, 19, 1, 10, 1, 13, 2, 19, 1, 3, 9, 14, 7, 3, 1, 13, 16, 19, 1, 12, 9, 5, 14, 15, 4, 9, 21, 13, 18, 15, 4, 5, 15, 15, 22, 1, 18, 25, 22, 9, 22, 5, 11, 1, 14, 1, 14, 4, 1, 5, 14, 1, 3, 20, 18, 1, 13, 15, 14, 1, 14, 1, 12, 9, 1, 18, 1, 19, 19, 1, 4, 11, 8, 1, 14, 9, 2, 15, 12, 5, 14, 4, 5, 18, 19, 1, 16, 8, 1, 19, 9, 1, 19, 21, 3, 3, 5, 5, 4, 1, 20, 19, 2, 12, 5, 5, 4, 12, 2, 10, 7, 15, 15, 2, 1, 12, 13, 19, 3, 12, 1, 19, 19, 1, 12, 2, 5, 5, 2, 1, 18, 6, 19, 1, 4, 5, 14, 11, 12, 9, 13, 20, 16, 12, 1, 25, 5, 18, 19, 20, 1, 18, 20, 20, 9, 1, 1, 13, 9, 7, 15, 20, 1, 12, 3, 18, 1, 7, 1, 2, 1, 1, 3, 5, 14, 15, 20, 1, 16, 8, 5, 1, 19, 25, 19, 9, 19, 20, 5, 18, 9, 14, 7, 8, 21, 19, 19, 1, 18, 19, 3, 1, 13, 19, 1, 3, 14, 5, 12, 1, 14, 3, 5, 1, 3, 20, 3, 1, 18, 16, 5, 20, 2, 1, 7, 1, 6, 20, 8, 5, 12, 7, 1, 3, 5, 12, 12, 14, 5, 5, 4, 1, 4, 18, 5, 14, 1, 12, 5, 16, 8, 5, 13, 5, 18, 1, 12, 1, 7, 5, 4, 8, 21, 13, 9, 4, 9, 6, 25, 18, 3, 1, 1, 12, 1, 19, 9, 3, 5, 4, 4, 9, 18, 1, 3, 19, 9, 14, 2, 15, 19, 5, 11, 14, 9, 20, 20, 5, 18, 16, 1, 7, 1, 14, 2, 1, 18, 14, 19, 20, 1, 5, 12, 11, 14, 5, 1, 4, 3, 1, 3, 8, 5, 18, 5, 14, 5, 5, 12, 1, 2, 7, 1, 12, 13, 15, 20, 8, 19, 13, 9, 1, 3, 1, 16, 19, 20, 1, 14, 11, 9, 12, 1, 21, 5, 1, 2, 1, 14, 4, 1, 7, 5, 1, 12, 5, 3, 18, 9, 2, 3, 1, 9, 18, 14, 5, 18, 18, 19, 12, 5, 1, 13, 9, 3, 1, 8, 3, 1, 18, 9, 2, 9, 20, 1, 12, 9, 3, 9, 26, 9, 14, 7, 21, 19, 1, 7, 5, 5, 12, 9, 26, 1, 5, 12, 9, 19, 1, 14, 15, 22, 5, 12, 19, 1, 14, 5, 4, 18, 9, 16, 5, 14, 18, 25, 4, 5, 18, 7, 5, 5, 19, 5]);
----------

%%  runtime:       3.043 (3043.027 ms)
%%  solvetime:     0.664 (664.253 ms)
%%  solutions:     1
%%  variables:     54298
%%  propagators:   70142
%%  propagations:  780555
%%  nodes:         221
%%  failures:      37
%%  restarts:      0
%%  peak depth:    157

GECODE_TUPLESET_SPEED
GECODE_TUPLESET_SPEED
GECODE_TUPLESET_SPEED
GECODE_TUPLESET_SPEED
GECODE_TUPLESET_SPEED
GECODE_TUPLESET_SPEED
GECODE_TUPLESET_SPEED
GECODE_TUPLESET_SPEED
GECODE_TUPLESET_SPEED
GECODE_TUPLESET_SPEED
GECODE_TUPLESET_SPEED
GECODE_TUPLESET_SPEED
GECODE_TUPLESET_SPEED
GECODE_TUPLESET_SPEED
GECODE_TUPLESET_SPEED
GECODE_TUPLESET_SPEED
GECODE_TUPLESET_SPEED
GECODE_TUPLESET_SPEED
GECODE_TUPLESET_SPEED
GECODE_TUPLESET_SPEED
GECODE_TUPLESET_SPEED
GECODE_TUPLESET_SPEED
GECODE_TUPLESET_SPEED
GECODE_TUPLESET_SPEED
GECODE_TUPLESET_SPEED
GECODE_TUPLESET_SPEED
GECODE_TUPLESET_SPEED
GECODE_TUPLESET_SPEED
GECODE_TUPLESET_SPEED
GECODE_TUPLESET_SPEED
GECODE_TUPLESET_SPEED
GECODE_TUPLESET_SPEED
GECODE_TUPLESET_SPEED
GECODE_TUPLESET_SPEED
GECODE_TUPLESET_SPEED
GECODE_TUPLESET_SPEED
GECODE_TUPLESET_SPEED
GECODE_TUPLESET_SPEED
GECODE_TUPLESET_SPEED
GECODE_TUPLESET_SPEED
GECODE_TUPLESET_SPEED
GECODE_TUPLESET_SPEED
GECODE_TUPLESET_SPEED
GECODE_TUPLESET_SPEED
GECODE_TUPLESET_SPEED
GECODE_TUPLESET_SPEED
GECODE_TUPLESET_SPEED
GECODE_TUPLESET_SPEED
GECODE_TUPLESET_SPEED
GECODE_TUPLESET_SPEED
GECODE_TUPLESET_SPEED
GECODE_TUPLESET_SPEED
GECODE_TUPLESET_SPEED
GECODE_TUPLESET_SPEED
GECODE_TUPLESET_SPEED
GECODE_TUPLESET_SPEED
GECODE_TUPLESET_SPEED
GECODE_TUPLESET_SPEED
GECODE_TUPLESET_SPEED
GECODE_TUPLESET_SPEED
GECODE_TUPLESET_SPEED
GECODE_TUPLESET_SPEED
GECODE_TUPLESET_SPEED
GECODE_TUPLESET_SPEED
GECODE_TUPLESET_SPEED
GECODE_TUPLESET_SPEED
GECODE_TUPLESET_SPEED
GECODE_TUPLESET_SPEED
GECODE_TUPLESET_SPEED
GECODE_TUPLESET_SPEED
GECODE_TUPLESET_SPEED
GECODE_TUPLESET_SPEED
GECODE_TUPLESET_SPEED
GECODE_TUPLESET_SPEED
GECODE_TUPLESET_SPEED
GECODE_TUPLESET_SPEED
GECODE_TUPLESET_SPEED
GECODE_TUPLESET_SPEED
GECODE_TUPLESET_SPEED
GECODE_TUPLESET_SPEED
GECODE_TUPLESET_SPEED
GECODE_TUPLESET_SPEED
GECODE_TUPLESET_SPEED
GECODE_TUPLESET_SPEED
GECODE_TUPLESET_SPEED
GECODE_TUPLESET_SPEED
GECODE_TUPLESET_SPEED
GECODE_TUPLESET_SPEED
GECODE_TUPLESET_SPEED
GECODE_TUPLESET_SPEED
GECODE_TUPLESET_SPEED
GECODE_TUPLESET_SPEED
GECODE_TUPLESET_SPEED
GECODE_TUPLESET_SPEED
GECODE_TUPLESET_SPEED
GECODE_TUPLESET_SPEED
GECODE_TUPLESET_SPEED
GECODE_TUPLESET_SPEED
GECODE_TUPLESET_SPEED
GECODE_TUPLESET_SPEED
GECODE_TUPLESET_SPEED
GECODE_TUPLESET_SPEED
GECODE_TUPLESET_SPEED
GECODE_TUPLESET_SPEED
GECODE_TUPLESET_SPEED
GECODE_TUPLESET_SPEED
GECODE_TUPLESET_SPEED
GECODE_TUPLESET_SPEED
GECODE_TUPLESET_SPEED
GECODE_TUPLESET_SPEED
GECODE_TUPLESET_SPEED
GECODE_TUPLESET_SPEED
GECODE_TUPLESET_SPEED
GECODE_TUPLESET_SPEED
GECODE_TUPLESET_SPEED
GECODE_TUPLESET_SPEED
GECODE_TUPLESET_SPEED
GECODE_TUPLESET_SPEED
GECODE_TUPLESET_SPEED
GECODE_TUPLESET_SPEED
GECODE_TUPLESET_SPEED
GECODE_TUPLESET_SPEED
GECODE_TUPLESET_SPEED
GECODE_TUPLESET_SPEED
GECODE_TUPLESET_SPEED
GECODE_TUPLESET_SPEED
GECODE_TUPLESET_SPEED
GECODE_TUPLESET_SPEED
GECODE_TUPLESET_SPEED
GECODE_TUPLESET_SPEED
GECODE_TUPLESET_SPEED
GECODE_TUPLESET_SPEED
GECODE_TUPLESET_SPEED
GECODE_TUPLESET_SPEED
GECODE_TUPLESET_SPEED
GECODE_TUPLESET_SPEED
GECODE_TUPLESET_SPEED
GECODE_TUPLESET_SPEED
GECODE_TUPLESET_SPEED
GECODE_TUPLESET_SPEED
GECODE_TUPLESET_SPEED
GECODE_TUPLESET_SPEED
GECODE_TUPLESET_SPEED
GECODE_TUPLESET_SPEED
GECODE_TUPLESET_SPEED
GECODE_TUPLESET_SPEED
GECODE_TUPLESET_SPEED
GECODE_TUPLESET_SPEED
GECODE_TUPLESET_SPEED
GECODE_TUPLESET_SPEED
GECODE_TUPLESET_SPEED
GECODE_TUPLESET_SPEED
GECODE_TUPLESET_SPEED
GECODE_TUPLESET_SPEED
GECODE_TUPLESET_SPEED
GECODE_TUPLESET_SPEED
GECODE_TUPLESET_SPEED
GECODE_TUPLESET_SPEED
GECODE_TUPLESET_SPEED
GECODE_TUPLESET_SPEED
GECODE_TUPLESET_SPEED
GECODE_TUPLESET_SPEED
GECODE_TUPLESET_SPEED
GECODE_TUPLESET_SPEED
GECODE_TUPLESET_SPEED
GECODE_TUPLESET_SPEED
GECODE_TUPLESET_SPEED
GECODE_TUPLESET_SPEED
GECODE_TUPLESET_SPEED
GECODE_TUPLESET_SPEED
GECODE_TUPLESET_SPEED
GECODE_TUPLESET_SPEED
GECODE_TUPLESET_SPEED
GECODE_TUPLESET_SPEED
GECODE_TUPLESET_SPEED
GECODE_TUPLESET_SPEED
GECODE_TUPLESET_SPEED
GECODE_TUPLESET_SPEED
GECODE_TUPLESET_SPEED
GECODE_TUPLESET_SPEED
L = array1d(0..445, [1, 12, 1, 19, 19, 1, 10, 1, 13, 2, 19, 1, 3, 9, 14, 7, 3, 1, 13, 16, 19, 1, 12, 9, 5, 14, 15, 4, 9, 21, 13, 18, 15, 4, 5, 15, 15, 22, 1, 18, 25, 22, 9, 22, 5, 11, 1, 14, 1, 14, 4, 1, 5, 14, 1, 3, 20, 18, 1, 13, 15, 14, 1, 14, 1, 12, 9, 1, 18, 1, 19, 19, 1, 4, 11, 8, 1, 14, 9, 2, 15, 12, 5, 14, 4, 5, 18, 19, 1, 16, 8, 1, 19, 9, 1, 19, 21, 3, 3, 5, 5, 4, 1, 20, 19, 2, 12, 5, 5, 4, 12, 2, 10, 7, 15, 15, 2, 1, 12, 13, 19, 3, 12, 1, 19, 19, 1, 12, 2, 5, 5, 2, 1, 18, 6, 19, 1, 4, 5, 14, 11, 12, 9, 13, 20, 16, 12, 1, 25, 5, 18, 19, 20, 1, 18, 20, 20, 9, 1, 1, 13, 9, 7, 15, 20, 1, 12, 3, 18, 1, 7, 1, 2, 1, 1, 3, 5, 14, 15, 20, 1, 16, 8, 5, 1, 19, 25, 19, 9, 19, 20, 5, 18, 9, 14, 7, 8, 21, 19, 19, 1, 18, 19, 3, 1, 13, 19, 1, 3, 14, 5, 12, 1, 14, 3, 5, 1, 3, 20, 3, 1, 18, 16, 5, 20, 2, 1, 7, 1, 6, 20, 8, 5, 12, 7, 1, 3, 5, 12, 12, 14, 5, 5, 4, 1, 4, 18, 5, 14, 1, 12, 5, 16, 8, 5, 13, 5, 18, 1, 12, 1, 7, 5, 4, 8, 21, 13, 9, 4, 9, 6, 25, 18, 3, 1, 1, 12, 1, 19, 9, 3, 5, 4, 4, 9, 18, 1, 3, 19, 9, 14, 2, 15, 19, 5, 11, 14, 9, 20, 20, 5, 18, 16, 1, 7, 1, 14, 2, 1, 18, 14, 19, 20, 1, 5, 12, 11, 14, 5, 1, 4, 3, 1, 3, 8, 5, 18, 5, 14, 5, 5, 12, 1, 2, 7, 1, 12, 13, 15, 20, 8, 19, 13, 9, 1, 3, 1, 16, 19, 20, 1, 14, 11, 9, 12, 1, 21, 5, 1, 2, 1, 14, 4, 1, 7, 5, 1, 12, 5, 3, 18, 9, 2, 3, 1, 9, 18, 14, 5, 18, 18, 19, 12, 5, 1, 13, 9, 3, 1, 8, 3, 1, 18, 9, 2, 9, 20, 1, 12, 9, 3, 9, 26, 9, 14, 7, 21, 19, 1, 7, 5, 5, 12, 9, 26, 1, 5, 12, 9, 19, 1, 14, 15, 22, 5, 12, 19, 1, 14, 5, 4, 18, 9, 16, 5, 14, 18, 25, 4, 5, 18, 7, 5, 5, 19, 5]);
----------

%%  runtime:       3.195 (3195.352 ms)
%%  solvetime:     0.832 (832.685 ms)
%%  solutions:     1
%%  variables:     54298
%%  propagators:   70142
%%  propagations:  789397
%%  nodes:         221
%%  failures:      37
%%  restarts:      0
%%  peak depth:    157

COMPACT_TABLE
COMPACT_TABLE
COMPACT_TABLE
COMPACT_TABLE
COMPACT_TABLE
COMPACT_TABLE
COMPACT_TABLE
COMPACT_TABLE
COMPACT_TABLE
COMPACT_TABLE
COMPACT_TABLE
COMPACT_TABLE
COMPACT_TABLE
COMPACT_TABLE
COMPACT_TABLE
COMPACT_TABLE
COMPACT_TABLE
COMPACT_TABLE
COMPACT_TABLE
COMPACT_TABLE
COMPACT_TABLE
COMPACT_TABLE
COMPACT_TABLE
COMPACT_TABLE
COMPACT_TABLE
COMPACT_TABLE
COMPACT_TABLE
COMPACT_TABLE
COMPACT_TABLE
COMPACT_TABLE
COMPACT_TABLE
COMPACT_TABLE
COMPACT_TABLE
COMPACT_TABLE
COMPACT_TABLE
COMPACT_TABLE
COMPACT_TABLE
COMPACT_TABLE
COMPACT_TABLE
COMPACT_TABLE
COMPACT_TABLE
COMPACT_TABLE
COMPACT_TABLE
COMPACT_TABLE
COMPACT_TABLE
COMPACT_TABLE
COMPACT_TABLE
COMPACT_TABLE
COMPACT_TABLE
COMPACT_TABLE
COMPACT_TABLE
COMPACT_TABLE
COMPACT_TABLE
COMPACT_TABLE
COMPACT_TABLE
COMPACT_TABLE
COMPACT_TABLE
COMPACT_TABLE
COMPACT_TABLE
COMPACT_TABLE
COMPACT_TABLE
COMPACT_TABLE
COMPACT_TABLE
COMPACT_TABLE
COMPACT_TABLE
COMPACT_TABLE
COMPACT_TABLE
COMPACT_TABLE
COMPACT_TABLE
COMPACT_TABLE
COMPACT_TABLE
COMPACT_TABLE
COMPACT_TABLE
COMPACT_TABLE
COMPACT_TABLE
COMPACT_TABLE
COMPACT_TABLE
COMPACT_TABLE
COMPACT_TABLE
COMPACT_TABLE
COMPACT_TABLE
COMPACT_TABLE
COMPACT_TABLE
COMPACT_TABLE
COMPACT_TABLE
COMPACT_TABLE
COMPACT_TABLE
COMPACT_TABLE
COMPACT_TABLE
COMPACT_TABLE
COMPACT_TABLE
COMPACT_TABLE
COMPACT_TABLE
COMPACT_TABLE
COMPACT_TABLE
COMPACT_TABLE
COMPACT_TABLE
COMPACT_TABLE
COMPACT_TABLE
COMPACT_TABLE
COMPACT_TABLE
COMPACT_TABLE
COMPACT_TABLE
COMPACT_TABLE
COMPACT_TABLE
COMPACT_TABLE
COMPACT_TABLE
COMPACT_TABLE
COMPACT_TABLE
COMPACT_TABLE
COMPACT_TABLE
COMPACT_TABLE
COMPACT_TABLE
COMPACT_TABLE
COMPACT_TABLE
COMPACT_TABLE
COMPACT_TABLE
COMPACT_TABLE
COMPACT_TABLE
COMPACT_TABLE
COMPACT_TABLE
COMPACT_TABLE
COMPACT_TABLE
COMPACT_TABLE
COMPACT_TABLE
COMPACT_TABLE
COMPACT_TABLE
COMPACT_TABLE
COMPACT_TABLE
COMPACT_TABLE
COMPACT_TABLE
COMPACT_TABLE
COMPACT_TABLE
COMPACT_TABLE
COMPACT_TABLE
COMPACT_TABLE
COMPACT_TABLE
COMPACT_TABLE
COMPACT_TABLE
COMPACT_TABLE
COMPACT_TABLE
COMPACT_TABLE
COMPACT_TABLE
COMPACT_TABLE
COMPACT_TABLE
COMPACT_TABLE
COMPACT_TABLE
COMPACT_TABLE
COMPACT_TABLE
COMPACT_TABLE
COMPACT_TABLE
COMPACT_TABLE
COMPACT_TABLE
COMPACT_TABLE
COMPACT_TABLE
COMPACT_TABLE
COMPACT_TABLE
COMPACT_TABLE
COMPACT_TABLE
COMPACT_TABLE
COMPACT_TABLE
COMPACT_TABLE
COMPACT_TABLE
COMPACT_TABLE
COMPACT_TABLE
COMPACT_TABLE
COMPACT_TABLE
COMPACT_TABLE
COMPACT_TABLE
COMPACT_TABLE
COMPACT_TABLE
COMPACT_TABLE
COMPACT_TABLE
COMPACT_TABLE
COMPACT_TABLE
COMPACT_TABLE
COMPACT_TABLE
COMPACT_TABLE
COMPACT_TABLE
COMPACT_TABLE
L = array1d(0..445, [1, 12, 1, 19, 19, 1, 10, 1, 13, 2, 19, 1, 3, 9, 14, 7, 3, 1, 13, 16, 19, 1, 12, 9, 5, 14, 15, 4, 9, 21, 13, 18, 15, 4, 5, 15, 15, 22, 1, 18, 25, 22, 9, 22, 5, 11, 1, 14, 1, 14, 4, 1, 5, 14, 1, 3, 20, 18, 1, 13, 15, 14, 1, 14, 1, 12, 9, 1, 18, 1, 19, 19, 1, 4, 11, 8, 1, 14, 9, 2, 15, 12, 5, 14, 4, 5, 18, 19, 1, 16, 8, 1, 19, 9, 1, 19, 21, 3, 3, 5, 5, 4, 1, 20, 19, 2, 12, 5, 5, 4, 12, 2, 10, 7, 15, 15, 2, 1, 12, 13, 19, 3, 12, 1, 19, 19, 1, 12, 2, 5, 5, 2, 1, 18, 6, 19, 1, 4, 5, 14, 11, 12, 9, 13, 20, 16, 12, 1, 25, 5, 18, 19, 20, 1, 18, 20, 20, 9, 1, 1, 13, 9, 7, 15, 20, 1, 12, 3, 18, 1, 7, 1, 2, 1, 1, 3, 5, 14, 15, 20, 1, 16, 8, 5, 1, 19, 25, 19, 9, 19, 20, 5, 18, 9, 14, 7, 8, 21, 19, 19, 1, 18, 19, 3, 1, 13, 19, 1, 3, 14, 5, 12, 1, 14, 3, 5, 1, 3, 20, 3, 1, 18, 16, 5, 20, 2, 1, 7, 1, 6, 20, 8, 5, 12, 7, 1, 3, 5, 12, 12, 14, 5, 5, 4, 1, 4, 18, 5, 14, 1, 12, 5, 16, 8, 5, 13, 5, 18, 1, 12, 1, 7, 5, 4, 8, 21, 13, 9, 4, 9, 6, 25, 18, 3, 1, 1, 12, 1, 19, 9, 3, 5, 4, 4, 9, 18, 1, 3, 19, 9, 14, 2, 15, 19, 5, 11, 14, 9, 20, 20, 5, 18, 16, 1, 7, 1, 14, 2, 1, 18, 14, 19, 20, 1, 5, 12, 11, 14, 5, 1, 4, 3, 1, 3, 8, 5, 18, 5, 14, 5, 5, 12, 1, 2, 7, 1, 12, 13, 15, 20, 8, 19, 13, 9, 1, 3, 1, 16, 19, 20, 1, 14, 11, 9, 12, 1, 21, 5, 1, 2, 1, 14, 4, 1, 7, 5, 1, 12, 5, 3, 18, 9, 2, 3, 1, 9, 18, 14, 5, 18, 18, 19, 12, 5, 1, 13, 9, 3, 1, 8, 3, 1, 18, 9, 2, 9, 20, 1, 12, 9, 3, 9, 26, 9, 14, 7, 21, 19, 1, 7, 5, 5, 12, 9, 26, 1, 5, 12, 9, 19, 1, 14, 15, 22, 5, 12, 19, 1, 14, 5, 4, 18, 9, 16, 5, 14, 18, 25, 4, 5, 18, 7, 5, 5, 19, 5]);
----------

%%  runtime:       3.492 (3492.968 ms)
%%  solvetime:     0.466 (466.909 ms)
%%  solutions:     1
%%  variables:     54298
%%  propagators:   70142
%%  propagations:  798898
%%  nodes:         221
%%  failures:      37
%%  restarts:      0
%%  peak depth:    157

